nCoins = 63;

CoinWeights = [
  1,
  5,
  10,
  12,
  20,
  20,
  31,
  50,
  100,
  100,
  110,
  110,
  120,
  200,
  210,
  300,
  500,
  1000,
  1000,
  1100,
  1100,
  2000,
  2000,
  3100,
  5000,
  10000,
  11000,
  20000,
  20000,
  21000,
  22000,
  50000,
  100000,
  110000,
  120000,
  200000,
  300000,
  310000,
  500000,
  1000000,
  1000000,
  1100000,
  2000000,
  2100000,
  2200000,
  3000000,
  5000000,
  10000000,
  10000000,
  11000000,
  11000000,
  20000000,
  20000000,
  31000000,
  50000000,
  100000000,
  120000000,
  200000000,
  200000005,
  210000000,
  210000005,
  500000000,
  500010000,
];
